
Gurobi 11.0.0 (mac64[arm]) logging started Fri Apr 19 15:20:33 2024

Set parameter LogFile to value "GurobiLogs/corral_7.txt"
Set parameter TimeLimit to value 3600

Gurobi 11.0.0 (mac64[arm]) logging started Fri Apr 19 15:20:50 2024

Set parameter LogFile to value "GurobiLogs/corral_7.txt"
Set parameter TimeLimit to value 3600
Gurobi Optimizer version 11.0.0 build v11.0.0rc2 (mac64[arm] - Darwin 23.4.0 23E224)

CPU model: Apple M3 Pro
Thread count: 11 physical cores, 11 logical processors, using up to 11 threads

Optimize a model with 664 rows, 278 columns and 3646 nonzeros
Model fingerprint: 0xef2ea3c0
Variable types: 1 continuous, 277 integer (269 binary)
Coefficient statistics:
  Matrix range     [9e-01, 1e+02]
  Objective range  [1e+00, 1e+00]
  Bounds range     [1e+00, 1e+00]
  RHS range        [1e+00, 1e+02]
Found heuristic solution: objective 57.0000000
Presolve removed 664 rows and 278 columns
Presolve time: 0.00s
Presolve: All rows and columns removed

Explored 0 nodes (0 simplex iterations) in 0.00 seconds (0.00 work units)
Thread count was 1 (of 11 available processors)

Solution count 1: 57 

Optimal solution found (tolerance 1.00e-04)
Best objective 5.700000000000e+01, best bound 5.700000000000e+01, gap 0.0000%

Gurobi 11.0.0 (mac64[arm]) logging started Fri Apr 19 15:22:11 2024

Set parameter LogFile to value "GurobiLogs/corral_7.txt"
Set parameter TimeLimit to value 3600
Unknown variable 'a[A0,0]' in MIP start 0 - ignored
Unknown variable 'a[A1,0]' in MIP start 0 - ignored
Unknown variable 'a[B0,0]' in MIP start 0 - ignored
Unknown variable 'a[B1,0]' in MIP start 0 - ignored
Unknown variable 'a[Irrelevant,0]' in MIP start 0 - ignored
Unknown variable 'a[Correlated,0]' in MIP start 0 - ignored
Read MIP start from file WarmStarts/corral_7.mst
Gurobi Optimizer version 11.0.0 build v11.0.0rc2 (mac64[arm] - Darwin 23.4.0 23E224)

CPU model: Apple M3 Pro
Thread count: 11 physical cores, 11 logical processors, using up to 11 threads

Optimize a model with 664 rows, 278 columns and 3646 nonzeros
Model fingerprint: 0xf46722aa
Variable types: 1 continuous, 277 integer (269 binary)
Coefficient statistics:
  Matrix range     [9e-01, 1e+02]
  Objective range  [1e+00, 1e+00]
  Bounds range     [1e+00, 1e+00]
  RHS range        [1e+00, 1e+02]

User MIP start produced solution with objective 57 (0.00s)
Loaded user MIP start with objective 57

Presolve removed 664 rows and 278 columns
Presolve time: 0.00s
Presolve: All rows and columns removed

Explored 0 nodes (0 simplex iterations) in 0.01 seconds (0.00 work units)
Thread count was 1 (of 11 available processors)

Solution count 1: 57 

Optimal solution found (tolerance 1.00e-04)
Best objective 5.700000000000e+01, best bound 5.700000000000e+01, gap 0.0000%

Gurobi 11.0.0 (mac64[arm]) logging started Fri Apr 19 15:25:06 2024

Set parameter LogFile to value "GurobiLogs/corral_7.txt"
Set parameter TimeLimit to value 3600
Unknown variable 'z[46,1]' in MIP start 0 - ignored
Unknown variable 'z[46,2]' in MIP start 0 - ignored
Unknown variable 'z[49,1]' in MIP start 0 - ignored
Unknown variable 'z[49,2]' in MIP start 0 - ignored
Unknown variable 'z[120,1]' in MIP start 0 - ignored
Unknown variable 'z[120,2]' in MIP start 0 - ignored
Unknown variable 'z[134,1]' in MIP start 0 - ignored
Unknown variable 'z[134,2]' in MIP start 0 - ignored
Unknown variable 'z[150,1]' in MIP start 0 - ignored
Unknown variable 'z[150,2]' in MIP start 0 - ignored
Unknown variable 'z[114,1]' in MIP start 0 - ignored
Unknown variable 'z[114,2]' in MIP start 0 - ignored
Unknown variable 'z[145,1]' in MIP start 0 - ignored
Unknown variable 'z[145,2]' in MIP start 0 - ignored
Unknown variable 'z[22,1]' in MIP start 0 - ignored
Unknown variable 'z[22,2]' in MIP start 0 - ignored
Unknown variable 'z[144,1]' in MIP start 0 - ignored
Unknown variable 'z[144,2]' in MIP start 0 - ignored
Unknown variable 'z[26,1]' in MIP start 0 - ignored
Unknown variable 'z[26,2]' in MIP start 0 - ignored
Unknown variable 'z[95,1]' in MIP start 0 - ignored
Unknown variable 'z[95,2]' in MIP start 0 - ignored
Unknown variable 'z[52,1]' in MIP start 0 - ignored
Unknown variable 'z[52,2]' in MIP start 0 - ignored
Unknown variable 'z[41,1]' in MIP start 0 - ignored
Unknown variable 'z[41,2]' in MIP start 0 - ignored
Unknown variable 'z[36,1]' in MIP start 0 - ignored
Unknown variable 'z[36,2]' in MIP start 0 - ignored
Unknown variable 'z[5,1]' in MIP start 0 - ignored
Unknown variable 'z[5,2]' in MIP start 0 - ignored
Unknown variable 'z[90,1]' in MIP start 0 - ignored
Unknown variable 'z[90,2]' in MIP start 0 - ignored
Unknown variable 'z[149,1]' in MIP start 0 - ignored
Unknown variable 'z[149,2]' in MIP start 0 - ignored
Unknown variable 'z[17,1]' in MIP start 0 - ignored
Unknown variable 'z[17,2]' in MIP start 0 - ignored
Unknown variable 'z[113,1]' in MIP start 0 - ignored
Unknown variable 'z[113,2]' in MIP start 0 - ignored
Unknown variable 'z[101,1]' in MIP start 0 - ignored
Unknown variable 'z[101,2]' in MIP start 0 - ignored
Unknown variable 'z[122,1]' in MIP start 0 - ignored
Unknown variable 'z[122,2]' in MIP start 0 - ignored
Unknown variable 'z[131,1]' in MIP start 0 - ignored
Unknown variable 'z[131,2]' in MIP start 0 - ignored
Unknown variable 'z[141,1]' in MIP start 0 - ignored
Unknown variable 'z[141,2]' in MIP start 0 - ignored
Unknown variable 'z[85,1]' in MIP start 0 - ignored
Unknown variable 'z[85,2]' in MIP start 0 - ignored
Unknown variable 'z[133,1]' in MIP start 0 - ignored
Unknown variable 'z[133,2]' in MIP start 0 - ignored
Unknown variable 'z[147,1]' in MIP start 0 - ignored
Unknown variable 'z[147,2]' in MIP start 0 - ignored
Unknown variable 'z[8,1]' in MIP start 0 - ignored
Unknown variable 'z[8,2]' in MIP start 0 - ignored
Unknown variable 'z[63,1]' in MIP start 0 - ignored
Unknown variable 'z[63,2]' in MIP start 0 - ignored
Unknown variable 'z[74,1]' in MIP start 0 - ignored
Unknown variable 'z[74,2]' in MIP start 0 - ignored
Unknown variable 'z[62,1]' in MIP start 0 - ignored
Unknown variable 'z[62,2]' in MIP start 0 - ignored
Unknown variable 'z[94,1]' in MIP start 0 - ignored
Unknown variable 'z[94,2]' in MIP start 0 - ignored
Unknown variable 'z[29,1]' in MIP start 0 - ignored
Unknown variable 'z[29,2]' in MIP start 0 - ignored
Unknown variable 'z[3,1]' in MIP start 0 - ignored
Unknown variable 'z[3,2]' in MIP start 0 - ignored
Unknown variable 'z[39,1]' in MIP start 0 - ignored
Unknown variable 'z[39,2]' in MIP start 0 - ignored
Unknown variable 'z[157,1]' in MIP start 0 - ignored
Unknown variable 'z[157,2]' in MIP start 0 - ignored
Unknown variable 'z[138,1]' in MIP start 0 - ignored
Unknown variable 'z[138,2]' in MIP start 0 - ignored
Unknown variable 'z[54,1]' in MIP start 0 - ignored
Unknown variable 'z[54,2]' in MIP start 0 - ignored
Unknown variable 'z[43,1]' in MIP start 0 - ignored
Unknown variable 'z[43,2]' in MIP start 0 - ignored
Unknown variable 'z[108,1]' in MIP start 0 - ignored
Unknown variable 'z[108,2]' in MIP start 0 - ignored
Unknown variable 'z[48,1]' in MIP start 0 - ignored
Unknown variable 'z[48,2]' in MIP start 0 - ignored
Unknown variable 'z[107,1]' in MIP start 0 - ignored
Unknown variable 'z[107,2]' in MIP start 0 - ignored
Unknown variable 'z[59,1]' in MIP start 0 - ignored
Unknown variable 'z[59,2]' in MIP start 0 - ignored
Unknown variable 'z[15,1]' in MIP start 0 - ignored
Unknown variable 'z[15,2]' in MIP start 0 - ignored
Unknown variable 'z[53,1]' in MIP start 0 - ignored
Unknown variable 'z[53,2]' in MIP start 0 - ignored
Unknown variable 'z[20,1]' in MIP start 0 - ignored
Unknown variable 'z[20,2]' in MIP start 0 - ignored
Unknown variable 'z[14,1]' in MIP start 0 - ignored
Unknown variable 'z[14,2]' in MIP start 0 - ignored
Unknown variable 'z[86,1]' in MIP start 0 - ignored
Unknown variable 'z[86,2]' in MIP start 0 - ignored
Unknown variable 'z[76,1]' in MIP start 0 - ignored
Unknown variable 'z[76,2]' in MIP start 0 - ignored
Unknown variable 'z[9,1]' in MIP start 0 - ignored
Unknown variable 'z[9,2]' in MIP start 0 - ignored
Unknown variable 'z[12,1]' in MIP start 0 - ignored
Unknown variable 'z[12,2]' in MIP start 0 - ignored
Unknown variable 'z[126,1]' in MIP start 0 - ignored
Unknown variable 'z[126,2]' in MIP start 0 - ignored
Unknown variable 'z[47,1]' in MIP start 0 - ignored
Unknown variable 'z[47,2]' in MIP start 0 - ignored
Unknown variable 'z[58,1]' in MIP start 0 - ignored
Unknown variable 'z[58,2]' in MIP start 0 - ignored
Unknown variable 'z[143,1]' in MIP start 0 - ignored
Unknown variable 'z[143,2]' in MIP start 0 - ignored
Unknown variable 'z[117,1]' in MIP start 0 - ignored
Unknown variable 'z[117,2]' in MIP start 0 - ignored
Unknown variable 'z[109,1]' in MIP start 0 - ignored
Unknown variable 'z[109,2]' in MIP start 0 - ignored
Unknown variable 'z[18,1]' in MIP start 0 - ignored
Unknown variable 'z[18,2]' in MIP start 0 - ignored
Unknown variable 'z[50,1]' in MIP start 0 - ignored
Unknown variable 'z[50,2]' in MIP start 0 - ignored
Unknown variable 'z[129,1]' in MIP start 0 - ignored
Unknown variable 'z[129,2]' in MIP start 0 - ignored
Unknown variable 'z[2,1]' in MIP start 0 - ignored
Unknown variable 'z[2,2]' in MIP start 0 - ignored
Unknown variable 'z[124,1]' in MIP start 0 - ignored
Unknown variable 'z[124,2]' in MIP start 0 - ignored
Unknown variable 'z[81,1]' in MIP start 0 - ignored
Unknown variable 'z[81,2]' in MIP start 0 - ignored
Unknown variable 'z[123,1]' in MIP start 0 - ignored
Unknown variable 'z[123,2]' in MIP start 0 - ignored
Unknown variable 'z[73,1]' in MIP start 0 - ignored
Unknown variable 'z[73,2]' in MIP start 0 - ignored
Unknown variable 'z[57,1]' in MIP start 0 - ignored
Unknown variable 'z[57,2]' in MIP start 0 - ignored
Unknown variable 'z[30,1]' in MIP start 0 - ignored
Unknown variable 'z[30,2]' in MIP start 0 - ignored
Unknown variable 'z[33,1]' in MIP start 0 - ignored
Unknown variable 'z[33,2]' in MIP start 0 - ignored
Unknown variable 'z[102,1]' in MIP start 0 - ignored
Unknown variable 'z[102,2]' in MIP start 0 - ignored
Unknown variable 'z[132,1]' in MIP start 0 - ignored
Unknown variable 'z[132,2]' in MIP start 0 - ignored
Unknown variable 'z[27,1]' in MIP start 0 - ignored
Unknown variable 'z[27,2]' in MIP start 0 - ignored
Unknown variable 'z[140,1]' in MIP start 0 - ignored
Unknown variable 'z[140,2]' in MIP start 0 - ignored
Unknown variable 'z[106,1]' in MIP start 0 - ignored
Unknown variable 'z[106,2]' in MIP start 0 - ignored
Unknown variable 'z[91,1]' in MIP start 0 - ignored
Unknown variable 'z[91,2]' in MIP start 0 - ignored
Unknown variable 'z[158,1]' in MIP start 0 - ignored
Unknown variable 'z[158,2]' in MIP start 0 - ignored
Unknown variable 'z[97,1]' in MIP start 0 - ignored
Unknown variable 'z[97,2]' in MIP start 0 - ignored
Unknown variable 'z[116,1]' in MIP start 0 - ignored
Unknown variable 'z[116,2]' in MIP start 0 - ignored
Unknown variable 'z[100,1]' in MIP start 0 - ignored
Unknown variable 'z[100,2]' in MIP start 0 - ignored
Unknown variable 'z[21,1]' in MIP start 0 - ignored
Unknown variable 'z[21,2]' in MIP start 0 - ignored
Unknown variable 'z[96,1]' in MIP start 0 - ignored
Unknown variable 'z[96,2]' in MIP start 0 - ignored
Unknown variable 'z[121,1]' in MIP start 0 - ignored
Unknown variable 'z[121,2]' in MIP start 0 - ignored
Unknown variable 'z[119,1]' in MIP start 0 - ignored
Unknown variable 'z[119,2]' in MIP start 0 - ignored
Unknown variable 'z[7,1]' in MIP start 0 - ignored
Unknown variable 'z[7,2]' in MIP start 0 - ignored
Unknown variable 'z[61,1]' in MIP start 0 - ignored
Unknown variable 'z[61,2]' in MIP start 0 - ignored
Unknown variable 'z[146,1]' in MIP start 0 - ignored
Unknown variable 'z[146,2]' in MIP start 0 - ignored
Unknown variable 'z[35,1]' in MIP start 0 - ignored
Unknown variable 'z[35,2]' in MIP start 0 - ignored
Unknown variable 'z[105,1]' in MIP start 0 - ignored
Unknown variable 'z[105,2]' in MIP start 0 - ignored
Unknown variable 'z[10,1]' in MIP start 0 - ignored
Unknown variable 'z[10,2]' in MIP start 0 - ignored
Unknown variable 'z[153,1]' in MIP start 0 - ignored
Unknown variable 'z[153,2]' in MIP start 0 - ignored
Unknown variable 'z[71,1]' in MIP start 0 - ignored
Unknown variable 'z[71,2]' in MIP start 0 - ignored
Unknown variable 'z[155,1]' in MIP start 0 - ignored
Unknown variable 'z[155,2]' in MIP start 0 - ignored
Unknown variable 'z[139,1]' in MIP start 0 - ignored
Unknown variable 'z[139,2]' in MIP start 0 - ignored
Unknown variable 'z[93,1]' in MIP start 0 - ignored
Unknown variable 'z[93,2]' in MIP start 0 - ignored
Unknown variable 'z[31,1]' in MIP start 0 - ignored
Unknown variable 'z[31,2]' in MIP start 0 - ignored
Unknown variable 'z[118,1]' in MIP start 0 - ignored
Unknown variable 'z[118,2]' in MIP start 0 - ignored
Unknown variable 'z[16,1]' in MIP start 0 - ignored
Unknown variable 'z[16,2]' in MIP start 0 - ignored
Unknown variable 'z[64,1]' in MIP start 0 - ignored
Unknown variable 'z[64,2]' in MIP start 0 - ignored
Unknown variable 'z[1,1]' in MIP start 0 - ignored
Unknown variable 'z[1,2]' in MIP start 0 - ignored
Unknown variable 'z[83,1]' in MIP start 0 - ignored
Unknown variable 'z[83,2]' in MIP start 0 - ignored
Unknown variable 'z[152,1]' in MIP start 0 - ignored
Unknown variable 'z[152,2]' in MIP start 0 - ignored
Unknown variable 'z[87,1]' in MIP start 0 - ignored
Unknown variable 'z[87,2]' in MIP start 0 - ignored
Unknown variable 'z[4,1]' in MIP start 0 - ignored
Unknown variable 'z[4,2]' in MIP start 0 - ignored
Unknown variable 'z[38,1]' in MIP start 0 - ignored
Unknown variable 'z[38,2]' in MIP start 0 - ignored
Unknown variable 'z[137,1]' in MIP start 0 - ignored
Unknown variable 'z[137,2]' in MIP start 0 - ignored
Unknown variable 'z[34,1]' in MIP start 0 - ignored
Unknown variable 'z[34,2]' in MIP start 0 - ignored
Unknown variable 'z[112,1]' in MIP start 0 - ignored
Unknown variable 'z[112,2]' in MIP start 0 - ignored
Unknown variable 'z[56,1]' in MIP start 0 - ignored
Unknown variable 'z[56,2]' in MIP start 0 - ignored
Unknown variable 'z[69,1]' in MIP start 0 - ignored
Unknown variable 'z[69,2]' in MIP start 0 - ignored
Unknown variable 'z[44,1]' in MIP start 0 - ignored
Unknown variable 'z[44,2]' in MIP start 0 - ignored
Unknown variable 'z[19,1]' in MIP start 0 - ignored
Unknown variable 'z[19,2]' in MIP start 0 - ignored
Unknown variable 'z[6,1]' in MIP start 0 - ignored
Unknown variable 'z[6,2]' in MIP start 0 - ignored
Unknown variable 'z[55,1]' in MIP start 0 - ignored
Unknown variable 'z[55,2]' in MIP start 0 - ignored
Unknown variable 'z[75,1]' in MIP start 0 - ignored
Unknown variable 'z[75,2]' in MIP start 0 - ignored
Unknown variable 'z[0,1]' in MIP start 0 - ignored
Unknown variable 'z[0,2]' in MIP start 0 - ignored
Unknown variable 'z[135,1]' in MIP start 0 - ignored
Unknown variable 'z[135,2]' in MIP start 0 - ignored
Unknown variable 'z[127,1]' in MIP start 0 - ignored
Unknown variable 'z[127,2]' in MIP start 0 - ignored
Unknown variable 'z[68,1]' in MIP start 0 - ignored
Unknown variable 'z[68,2]' in MIP start 0 - ignored
Unknown variable 'z[136,1]' in MIP start 0 - ignored
Unknown variable 'z[136,2]' in MIP start 0 - ignored
Unknown variable 'z[42,1]' in MIP start 0 - ignored
Unknown variable 'z[42,2]' in MIP start 0 - ignored
Unknown variable 'z[110,1]' in MIP start 0 - ignored
Unknown variable 'z[110,2]' in MIP start 0 - ignored
Unknown variable 'z[89,1]' in MIP start 0 - ignored
Unknown variable 'z[89,2]' in MIP start 0 - ignored
Unknown variable 'z[72,1]' in MIP start 0 - ignored
Unknown variable 'z[72,2]' in MIP start 0 - ignored
Unknown variable 'z[23,1]' in MIP start 0 - ignored
Unknown variable 'z[23,2]' in MIP start 0 - ignored
Unknown variable 'z[142,1]' in MIP start 0 - ignored
Unknown variable 'z[142,2]' in MIP start 0 - ignored
Unknown variable 'z[92,1]' in MIP start 0 - ignored
Unknown variable 'z[92,2]' in MIP start 0 - ignored
Unknown variable 'z[103,1]' in MIP start 0 - ignored
Unknown variable 'z[103,2]' in MIP start 0 - ignored
Unknown variable 'z[151,1]' in MIP start 0 - ignored
Unknown variable 'z[151,2]' in MIP start 0 - ignored
Unknown variable 'z[67,1]' in MIP start 0 - ignored
Unknown variable 'z[67,2]' in MIP start 0 - ignored
Unknown variable 'z[25,1]' in MIP start 0 - ignored
Unknown variable 'z[25,2]' in MIP start 0 - ignored
Unknown variable 'l[1]' in MIP start 0 - ignored
Unknown variable 'l[2]' in MIP start 0 - ignored
Unknown variable 'c[-1.0,1]' in MIP start 0 - ignored
Unknown variable 'c[-1.0,2]' in MIP start 0 - ignored
Unknown variable 'c[1.0,1]' in MIP start 0 - ignored
Unknown variable 'c[1.0,2]' in MIP start 0 - ignored
Unknown variable 'n_k[-1.0,1]' in MIP start 0 - ignored
Unknown variable 'n_k[-1.0,2]' in MIP start 0 - ignored
Unknown variable 'n_k[1.0,1]' in MIP start 0 - ignored
Unknown variable 'n_k[1.0,2]' in MIP start 0 - ignored
Unknown variable 'N[1]' in MIP start 0 - ignored
Unknown variable 'N[2]' in MIP start 0 - ignored
Unknown variable 'L[1]' in MIP start 0 - ignored
Unknown variable 'L[2]' in MIP start 0 - ignored
Read MIP start from file WarmStarts/corral_7.mst
Gurobi Optimizer version 11.0.0 build v11.0.0rc2 (mac64[arm] - Darwin 23.4.0 23E224)

CPU model: Apple M3 Pro
Thread count: 11 physical cores, 11 logical processors, using up to 11 threads

Optimize a model with 1718 rows, 564 columns and 11410 nonzeros
Model fingerprint: 0xbfd6a718
Variable types: 3 continuous, 561 integer (545 binary)
Coefficient statistics:
  Matrix range     [9e-01, 1e+02]
  Objective range  [1e+00, 1e+00]
  Bounds range     [1e+00, 1e+00]
  RHS range        [1e+00, 1e+02]

Warning: Completing partial solution with 554 unfixed non-continuous variables out of 561
User MIP start produced solution with objective 57 (0.01s)
Loaded user MIP start with objective 57

Presolve removed 1718 rows and 564 columns
Presolve time: 0.01s
Presolve: All rows and columns removed

Explored 0 nodes (0 simplex iterations) in 0.02 seconds (0.03 work units)
Thread count was 1 (of 11 available processors)

Solution count 1: 57 

Optimal solution found (tolerance 1.00e-04)
Best objective 5.700000000000e+01, best bound 5.700000000000e+01, gap 0.0000%

Gurobi 11.0.0 (mac64[arm]) logging started Fri Apr 19 15:25:30 2024

Set parameter LogFile to value "GurobiLogs/corral_7.txt"
Set parameter TimeLimit to value 3600
Read MIP start from file WarmStarts/corral_7.mst
Gurobi Optimizer version 11.0.0 build v11.0.0rc2 (mac64[arm] - Darwin 23.4.0 23E224)

CPU model: Apple M3 Pro
Thread count: 11 physical cores, 11 logical processors, using up to 11 threads

Optimize a model with 1718 rows, 564 columns and 11410 nonzeros
Model fingerprint: 0xea847637
Variable types: 3 continuous, 561 integer (545 binary)
Coefficient statistics:
  Matrix range     [9e-01, 1e+02]
  Objective range  [1e+00, 1e+00]
  Bounds range     [1e+00, 1e+00]
  RHS range        [1e+00, 1e+02]

User MIP start produced solution with objective 57 (0.01s)
Loaded user MIP start with objective 57

Presolve removed 1718 rows and 564 columns
Presolve time: 0.01s
Presolve: All rows and columns removed

Explored 0 nodes (0 simplex iterations) in 0.03 seconds (0.03 work units)
Thread count was 1 (of 11 available processors)

Solution count 1: 57 

Optimal solution found (tolerance 1.00e-04)
Best objective 5.700000000000e+01, best bound 5.700000000000e+01, gap 0.0000%

Gurobi 11.0.0 (mac64[arm]) logging started Fri Apr 19 15:26:05 2024

Set parameter LogFile to value "GurobiLogs/corral_7.txt"
Set parameter TimeLimit to value 3600
Read MIP start from file WarmStarts/corral_7.mst
Gurobi Optimizer version 11.0.0 build v11.0.0rc2 (mac64[arm] - Darwin 23.4.0 23E224)

CPU model: Apple M3 Pro
Thread count: 11 physical cores, 11 logical processors, using up to 11 threads

Optimize a model with 1717 rows, 564 columns and 11407 nonzeros
Model fingerprint: 0x50175882
Variable types: 3 continuous, 561 integer (545 binary)
Coefficient statistics:
  Matrix range     [9e-01, 1e+02]
  Objective range  [1e+00, 1e+00]
  Bounds range     [1e+00, 1e+00]
  RHS range        [1e+00, 1e+02]

User MIP start produced solution with objective 57 (0.01s)
Loaded user MIP start with objective 57

Presolve removed 1717 rows and 564 columns
Presolve time: 0.01s
Presolve: All rows and columns removed

Explored 0 nodes (0 simplex iterations) in 0.02 seconds (0.02 work units)
Thread count was 1 (of 11 available processors)

Solution count 1: 57 

Optimal solution found (tolerance 1.00e-04)
Best objective 5.700000000000e+01, best bound 5.700000000000e+01, gap 0.0000%

Gurobi 11.0.0 (mac64[arm]) logging started Fri Apr 19 15:28:34 2024

Set parameter LogFile to value "GurobiLogs/corral_7.txt"
Set parameter TimeLimit to value 3600
Read MIP start from file WarmStarts/corral_7.mst
Gurobi Optimizer version 11.0.0 build v11.0.0rc2 (mac64[arm] - Darwin 23.4.0 23E224)

CPU model: Apple M3 Pro
Thread count: 11 physical cores, 11 logical processors, using up to 11 threads

Optimize a model with 1718 rows, 564 columns and 11410 nonzeros
Model fingerprint: 0xea847637
Variable types: 3 continuous, 561 integer (545 binary)
Coefficient statistics:
  Matrix range     [9e-01, 1e+02]
  Objective range  [1e+00, 1e+00]
  Bounds range     [1e+00, 1e+00]
  RHS range        [1e+00, 1e+02]

User MIP start produced solution with objective 57 (0.01s)
Loaded user MIP start with objective 57

Presolve removed 1718 rows and 564 columns
Presolve time: 0.01s
Presolve: All rows and columns removed

Explored 0 nodes (0 simplex iterations) in 0.03 seconds (0.03 work units)
Thread count was 1 (of 11 available processors)

Solution count 1: 57 

Optimal solution found (tolerance 1.00e-04)
Best objective 5.700000000000e+01, best bound 5.700000000000e+01, gap 0.0000%

Gurobi 11.0.0 (mac64[arm]) logging started Fri Apr 19 15:28:52 2024

Set parameter LogFile to value "GurobiLogs/corral_7.txt"
Set parameter TimeLimit to value 3600
Read MIP start from file WarmStarts/corral_7.mst
Gurobi Optimizer version 11.0.0 build v11.0.0rc2 (mac64[arm] - Darwin 23.4.0 23E224)

CPU model: Apple M3 Pro
Thread count: 11 physical cores, 11 logical processors, using up to 11 threads

Optimize a model with 1718 rows, 564 columns and 11410 nonzeros
Model fingerprint: 0xea847637
Variable types: 3 continuous, 561 integer (545 binary)
Coefficient statistics:
  Matrix range     [9e-01, 1e+02]
  Objective range  [1e+00, 1e+00]
  Bounds range     [1e+00, 1e+00]
  RHS range        [1e+00, 1e+02]

User MIP start produced solution with objective 57 (0.01s)
Loaded user MIP start with objective 57

Presolve removed 1718 rows and 564 columns
Presolve time: 0.01s
Presolve: All rows and columns removed

Explored 0 nodes (0 simplex iterations) in 0.03 seconds (0.03 work units)
Thread count was 1 (of 11 available processors)

Solution count 1: 57 

Optimal solution found (tolerance 1.00e-04)
Best objective 5.700000000000e+01, best bound 5.700000000000e+01, gap 0.0000%

Gurobi 11.0.0 (mac64[arm]) logging started Fri Apr 19 15:31:39 2024

Set parameter LogFile to value "GurobiLogs/corral_7.txt"
Set parameter TimeLimit to value 3600
Read MIP start from file WarmStarts/corral_7.mst
Gurobi Optimizer version 11.0.0 build v11.0.0rc2 (mac64[arm] - Darwin 23.4.0 23E224)

CPU model: Apple M3 Pro
Thread count: 11 physical cores, 11 logical processors, using up to 11 threads

Optimize a model with 1718 rows, 564 columns and 11410 nonzeros
Model fingerprint: 0xea847637
Variable types: 3 continuous, 561 integer (545 binary)
Coefficient statistics:
  Matrix range     [9e-01, 1e+02]
  Objective range  [1e+00, 1e+00]
  Bounds range     [1e+00, 1e+00]
  RHS range        [1e+00, 1e+02]

User MIP start produced solution with objective 57 (0.01s)
Loaded user MIP start with objective 57

Presolve removed 1718 rows and 564 columns
Presolve time: 0.01s
Presolve: All rows and columns removed

Explored 0 nodes (0 simplex iterations) in 0.02 seconds (0.03 work units)
Thread count was 1 (of 11 available processors)

Solution count 1: 57 

Optimal solution found (tolerance 1.00e-04)
Best objective 5.700000000000e+01, best bound 5.700000000000e+01, gap 0.0000%
